p cnf 8 34
-5 -7 0
-4 2 7 0
1 6 -5 0
2 7 -3 0
6 -3 0
6 -5 7 0
-8 2 -5 0
4 6 -3 0
4 -3 7 -1 0
-5 -7 -4 -3 -2 6 1 8 0
-1 -6 0
-1 5 8 0
-7 -4 1 0
1 6 8 0
2 -1 0
-2 8 -4 0
1 3 7 -6 0
-8 7 5 2 3 -4 0
8 7 5 1 0
-3 -4 -6 0
2 -8 -6 5 4 -1 7 0
1 3 0
5 -4 0
3 6 -1 2 -5 -7 0
4 7 6 -1 0
-2 7 -1 0
1 -8 -7 0
-1 8 6 0
2 6 -5 0
2 -8 4 0
6 -7 0
-6 3 0
-6 8 -4 5 -1 2 -7 -3 0
-3 -6 0
